# Generated by ConicBenchmarkUtilities.jl
VER
2

OBJSENSE
MIN

VAR
193 1
F 193

INT
60
22
23
24
25
26
27
28
29
30
31
32
33
34
35
36
37
38
39
40
41
42
43
44
45
46
47
48
49
50
51
106
108
110
112
113
114
117
120
121
122
125
128
131
134
136
138
139
140
141
142
144
146
147
148
150
152
154
156
158
160

CON
588 544
L= 1
L= 1
L= 1
L= 1
L= 1
L= 1
L= 1
L= 1
L= 1
L= 1
L= 1
L= 1
L= 1
L= 1
L= 1
L= 1
L= 1
L= 1
L= 1
L= 1
L= 1
EXP 3
L+ 1
EXP 3
L+ 1
L+ 1
L+ 1
L+ 1
L+ 1
EXP 3
L+ 1
EXP 3
L+ 1
L+ 1
L+ 1
L+ 1
L+ 1
L+ 1
L+ 1
L+ 1
L+ 1
L+ 1
L+ 1
L+ 1
L+ 1
EXP 3
L+ 1
EXP 3
L+ 1
L+ 1
L+ 1
L+ 1
L+ 1
L+ 1
L+ 1
L+ 1
L+ 1
L+ 1
L+ 1
L+ 1
L+ 1
L+ 1
L+ 1
L+ 1
L+ 1
L+ 1
L+ 1
EXP 3
L+ 1
EXP 3
L+ 1
L+ 1
L+ 1
L+ 1
L+ 1
EXP 3
L+ 1
EXP 3
L+ 1
L+ 1
L+ 1
L+ 1
L+ 1
EXP 3
L+ 1
EXP 3
L+ 1
L+ 1
L+ 1
L+ 1
L+ 1
L+ 1
L+ 1
L+ 1
L+ 1
L+ 1
L+ 1
L+ 1
L+ 1
L+ 1
L+ 1
L+ 1
L+ 1
L+ 1
L+ 1
L+ 1
L+ 1
EXP 3
L+ 1
EXP 3
L+ 1
L+ 1
L+ 1
L+ 1
L+ 1
L+ 1
L+ 1
L+ 1
L+ 1
L+ 1
L+ 1
L+ 1
L+ 1
L+ 1
L+ 1
L+ 1
L+ 1
L+ 1
L+ 1
EXP 3
L+ 1
EXP 3
L+ 1
L+ 1
L+ 1
L+ 1
L+ 1
EXP 3
L+ 1
EXP 3
L+ 1
L+ 1
L+ 1
L+ 1
L+ 1
EXP 3
L+ 1
EXP 3
L+ 1
EXP 3
L+ 1
EXP 3
L+ 1
L+ 1
L+ 1
L+ 1
L+ 1
L+ 1
L+ 1
L+ 1
L+ 1
L+ 1
L+ 1
L+ 1
L+ 1
L+ 1
L+ 1
L+ 1
L+ 1
L+ 1
L+ 1
L+ 1
L+ 1
L+ 1
L+ 1
L+ 1
L+ 1
L+ 1
L+ 1
L+ 1
L+ 1
L+ 1
L+ 1
L+ 1
L+ 1
L+ 1
L+ 1
L+ 1
L+ 1
L+ 1
L+ 1
L+ 1
L+ 1
L+ 1
L+ 1
L+ 1
L+ 1
L+ 1
L+ 1
L+ 1
L+ 1
L+ 1
L+ 1
L+ 1
L+ 1
L+ 1
L+ 1
L+ 1
L+ 1
L+ 1
L+ 1
L+ 1
L+ 1
L+ 1
L+ 1
L+ 1
L+ 1
L+ 1
L+ 1
L+ 1
L+ 1
L+ 1
L+ 1
L+ 1
L+ 1
L+ 1
L+ 1
L+ 1
L+ 1
L+ 1
L+ 1
L+ 1
L+ 1
L+ 1
L+ 1
L+ 1
L+ 1
L+ 1
L+ 1
L+ 1
L+ 1
L+ 1
L+ 1
L+ 1
L+ 1
L+ 1
L+ 1
L+ 1
L+ 1
L+ 1
L+ 1
L+ 1
L+ 1
L+ 1
L+ 1
L+ 1
L+ 1
L+ 1
L+ 1
L+ 1
L+ 1
L+ 1
L+ 1
L+ 1
L+ 1
L+ 1
L+ 1
L+ 1
L+ 1
L+ 1
L+ 1
L+ 1
L+ 1
L+ 1
L+ 1
L+ 1
L+ 1
L+ 1
L+ 1
L+ 1
L+ 1
L+ 1
L+ 1
L+ 1
L+ 1
L+ 1
L+ 1
L+ 1
L+ 1
L+ 1
L+ 1
L+ 1
L+ 1
L+ 1
L= 1
L= 1
L+ 1
L+ 1
L+ 1
L+ 1
L+ 1
L+ 1
L+ 1
L+ 1
L+ 1
L+ 1
L+ 1
L+ 1
L+ 1
L+ 1
L+ 1
L+ 1
L+ 1
L+ 1
L+ 1
L+ 1
L+ 1
L+ 1
L+ 1
L+ 1
L+ 1
L+ 1
L+ 1
L+ 1
L+ 1
L+ 1
L+ 1
L+ 1
L+ 1
L+ 1
L+ 1
L+ 1
L+ 1
L+ 1
L+ 1
L+ 1
L+ 1
L+ 1
L+ 1
L+ 1
L+ 1
L+ 1
L+ 1
L+ 1
L+ 1
L+ 1
L+ 1
L+ 1
L+ 1
L+ 1
L+ 1
L+ 1
L+ 1
L+ 1
L+ 1
L+ 1
L+ 1
L+ 1
L+ 1
L+ 1
L+ 1
L+ 1
L+ 1
L+ 1
L+ 1
L+ 1
L+ 1
L+ 1
L+ 1
L+ 1
L+ 1
L+ 1
L+ 1
L+ 1
L+ 1
L+ 1
L+ 1
L+ 1
L+ 1
L+ 1
L+ 1
L+ 1
L+ 1
L+ 1
L+ 1
L+ 1
L+ 1
L+ 1
L+ 1
L+ 1
L+ 1
L+ 1
L+ 1
L+ 1
L+ 1
L+ 1
L+ 1
L+ 1
L+ 1
L+ 1
L+ 1
L+ 1
L+ 1
L+ 1
L+ 1
L+ 1
L+ 1
L+ 1
L+ 1
L+ 1
L+ 1
L+ 1
L+ 1
L+ 1
L+ 1
L+ 1
L+ 1
L+ 1
L+ 1
L+ 1
L+ 1
L+ 1
L+ 1
L+ 1
L+ 1
L+ 1
L+ 1
L+ 1
L+ 1
L+ 1
L+ 1
L+ 1
L+ 1
L+ 1
L+ 1
L+ 1
L+ 1
L+ 1
L+ 1
L+ 1
L+ 1
L+ 1
L+ 1
L+ 1
L+ 1
L+ 1
L+ 1
L+ 1
L+ 1
L+ 1
L+ 1
L+ 1
L+ 1
L+ 1
L+ 1
L+ 1
L+ 1
L+ 1
L+ 1
L+ 1
L+ 1
L+ 1
L+ 1
L+ 1
L+ 1
L+ 1
L+ 1
L+ 1
L+ 1
L+ 1
L+ 1
L+ 1
L+ 1
L+ 1
L+ 1
L+ 1
L+ 1
L+ 1
L+ 1
L+ 1
L+ 1
L+ 1
L+ 1
L+ 1
L+ 1
L+ 1
L+ 1
L+ 1
L+ 1
L+ 1
L+ 1
L+ 1
L+ 1
L+ 1
L+ 1
L+ 1
L+ 1
L+ 1
L+ 1
L+ 1
L+ 1
L+ 1
L+ 1
L+ 1
L+ 1
L+ 1
L+ 1
L+ 1
L+ 1
L+ 1
L+ 1
L+ 1
L+ 1
L+ 1
L+ 1
L+ 1
L+ 1
L+ 1
L+ 1
L+ 1
L+ 1
L+ 1
L+ 1
L+ 1
L+ 1
L+ 1
L+ 1
L+ 1
L+ 1
L+ 1
L+ 1
L+ 1
L+ 1
L+ 1
L+ 1
L+ 1
L+ 1
L+ 1
L+ 1
L+ 1
L+ 1
L+ 1
L+ 1
L+ 1

OBJACOORD
1
52 -1.0

ACOORD
1036
0 0 -1.0
1 0 1.0
380 0 1.0
381 0 -1.0
0 1 -1.0
2 1 1.0
382 1 1.0
383 1 -1.0
0 2 5.0
5 2 -1.0
394 2 1.0
0 3 10.0
6 3 -1.0
395 3 1.0
0 4 -2.0
69 4 0.5
71 4 -0.5
75 4 -1.0
404 4 1.0
405 4 -1.0
0 5 -1.0
70 5 0.5
72 5 -0.5
76 5 -1.0
406 5 1.0
407 5 -1.0
0 6 500.0
17 6 1.0
123 6 -1.0
125 6 1.0
129 6 -1.0
432 6 1.0
0 7 600.0
18 7 1.0
124 7 -1.0
126 7 1.0
130 7 -1.0
433 7 1.0
0 8 350.0
19 8 1.0
134 8 -1.0
141 8 -1.0
434 8 1.0
0 9 400.0
20 9 1.0
138 9 -1.0
142 9 -1.0
435 9 1.0
0 10 -10.0
147 10 1.0
149 10 -1.0
153 10 -1.0
440 10 1.0
441 10 -1.0
0 11 -5.0
148 11 1.0
150 11 -1.0
154 11 -1.0
442 11 1.0
443 11 -1.0
0 12 -5.0
15 12 -1.0
444 12 1.0
445 12 -1.0
0 13 -5.0
16 13 -1.0
446 13 1.0
447 13 -1.0
0 14 80.0
143 14 -1.0
145 14 1.0
147 14 -1.0
149 14 1.0
155 14 -1.0
460 14 1.0
0 15 130.0
144 15 -1.0
146 15 1.0
148 15 -1.0
150 15 1.0
156 15 -1.0
461 15 1.0
0 16 110.0
160 16 -1.0
167 16 -1.0
462 16 1.0
0 17 120.0
164 17 -1.0
168 17 -1.0
463 17 1.0
0 18 110.0
172 18 -1.0
179 18 -1.0
464 18 1.0
0 19 130.0
176 19 -1.0
180 19 -1.0
465 19 1.0
0 20 80.0
184 20 -1.0
192 20 -1.0
201 20 -1.0
466 20 1.0
0 21 90.0
188 21 -1.0
196 21 -1.0
202 21 -1.0
467 21 1.0
0 22 -5.0
203 22 -5.0
233 22 5.0
278 22 -1.0
279 22 -1.0
308 22 1.0
528 22 1.0
529 22 -1.0
0 23 -4.0
204 23 -4.0
234 23 4.0
278 23 -1.0
279 23 -1.0
309 23 1.0
530 23 1.0
531 23 -1.0
0 24 -8.0
205 24 -8.0
235 24 8.0
280 24 -1.0
281 24 -1.0
310 24 1.0
532 24 1.0
533 24 -1.0
0 25 -7.0
206 25 -7.0
236 25 7.0
280 25 -1.0
281 25 -1.0
311 25 1.0
534 25 1.0
535 25 -1.0
0 26 -6.0
207 26 -6.0
237 26 6.0
282 26 -1.0
283 26 -1.0
312 26 1.0
536 26 1.0
537 26 -1.0
0 27 -9.0
208 27 -9.0
238 27 9.0
282 27 -1.0
283 27 -1.0
313 27 1.0
538 27 1.0
539 27 -1.0
0 28 -10.0
209 28 -10.0
239 28 10.0
284 28 -1.0
285 28 -1.0
314 28 1.0
540 28 1.0
541 28 -1.0
0 29 -9.0
210 29 -9.0
240 29 9.0
284 29 -1.0
285 29 -1.0
315 29 1.0
542 29 1.0
543 29 -1.0
0 30 -6.0
211 30 -6.0
241 30 6.0
286 30 -1.0
287 30 -1.0
316 30 1.0
544 30 1.0
545 30 -1.0
0 31 -10.0
212 31 -10.0
242 31 10.0
286 31 -1.0
287 31 -1.0
317 31 1.0
546 31 1.0
547 31 -1.0
0 32 -7.0
213 32 -7.0
243 32 7.0
288 32 -1.0
289 32 -1.0
318 32 1.0
548 32 1.0
549 32 -1.0
0 33 -7.0
214 33 -7.0
244 33 7.0
288 33 -1.0
289 33 -1.0
319 33 1.0
550 33 1.0
551 33 -1.0
0 34 -4.0
215 34 -4.0
245 34 4.0
290 34 -1.0
291 34 -1.0
320 34 1.0
552 34 1.0
553 34 -1.0
0 35 -3.0
216 35 -3.0
246 35 3.0
290 35 -1.0
291 35 -1.0
321 35 1.0
554 35 1.0
555 35 -1.0
0 36 -5.0
217 36 -5.0
247 36 5.0
292 36 -1.0
293 36 -1.0
322 36 1.0
556 36 1.0
557 36 -1.0
0 37 -6.0
218 37 -6.0
248 37 6.0
292 37 -1.0
293 37 -1.0
323 37 1.0
558 37 1.0
559 37 -1.0
0 38 -2.0
219 38 -2.0
249 38 2.0
294 38 -1.0
295 38 -1.0
324 38 1.0
560 38 1.0
561 38 -1.0
0 39 -5.0
220 39 -5.0
250 39 5.0
294 39 -1.0
295 39 -1.0
325 39 1.0
562 39 1.0
563 39 -1.0
0 40 -4.0
221 40 -4.0
251 40 4.0
296 40 -1.0
297 40 -1.0
326 40 1.0
564 40 1.0
565 40 -1.0
0 41 -7.0
222 41 -7.0
252 41 7.0
296 41 -1.0
297 41 -1.0
327 41 1.0
566 41 1.0
567 41 -1.0
0 42 -3.0
223 42 -3.0
253 42 3.0
298 42 -1.0
299 42 -1.0
328 42 1.0
568 42 1.0
569 42 -1.0
0 43 -9.0
224 43 -9.0
254 43 9.0
298 43 -1.0
299 43 -1.0
329 43 1.0
570 43 1.0
571 43 -1.0
0 44 -7.0
225 44 -7.0
255 44 7.0
300 44 -1.0
301 44 -1.0
330 44 1.0
572 44 1.0
573 44 -1.0
0 45 -2.0
226 45 -2.0
256 45 2.0
300 45 -1.0
301 45 -1.0
331 45 1.0
574 45 1.0
575 45 -1.0
0 46 -3.0
227 46 -3.0
257 46 3.0
302 46 -1.0
303 46 -1.0
332 46 1.0
576 46 1.0
577 46 -1.0
0 47 -1.0
228 47 -1.0
258 47 1.0
302 47 -1.0
303 47 -1.0
333 47 1.0
578 47 1.0
579 47 -1.0
0 48 -2.0
229 48 -2.0
259 48 2.0
304 48 -1.0
305 48 -1.0
334 48 1.0
580 48 1.0
581 48 -1.0
0 49 -6.0
230 49 -6.0
260 49 6.0
304 49 -1.0
305 49 -1.0
335 49 1.0
582 49 1.0
583 49 -1.0
0 50 -4.0
231 50 -4.0
261 50 4.0
306 50 -1.0
307 50 -1.0
336 50 1.0
584 50 1.0
585 50 -1.0
0 51 -8.0
232 51 -8.0
262 51 8.0
306 51 -1.0
307 51 -1.0
337 51 1.0
586 51 1.0
587 51 -1.0
0 52 -1.0
1 53 -1.0
21 53 1.0
29 53 -1.0
384 53 1.0
1 54 -1.0
33 54 1.0
41 54 -1.0
386 54 1.0
2 55 -1.0
25 55 1.0
30 55 -1.0
385 55 1.0
2 56 -1.0
37 56 1.0
42 56 -1.0
387 56 1.0
3 57 -1.0
24 57 -1.0
31 57 -1.0
388 57 1.0
3 58 -1.0
36 58 -1.0
43 58 -1.0
390 58 1.0
3 59 1.0
5 59 1.0
392 59 1.0
4 60 -1.0
28 60 -1.0
32 60 -1.0
389 60 1.0
4 61 -1.0
40 61 -1.0
44 61 -1.0
391 61 1.0
4 62 1.0
6 62 1.0
393 62 1.0
5 63 -1.0
7 63 1.0
396 63 1.0
6 64 -1.0
8 64 1.0
397 64 1.0
7 65 -1.0
45 65 0.75
47 65 -0.75
49 65 -1.0
398 65 1.0
7 66 -1.0
53 66 1.0
61 66 -1.0
400 66 1.0
7 67 -1.0
65 67 1.0
67 67 -1.0
73 67 -1.0
402 67 1.0
8 68 -1.0
46 68 0.75
48 68 -0.75
50 68 -1.0
399 68 1.0
8 69 -1.0
57 69 1.0
62 69 -1.0
401 69 1.0
8 70 -1.0
66 70 1.0
68 70 -1.0
74 70 -1.0
403 70 1.0
9 71 1.0
45 71 -1.0
47 71 1.0
51 71 -1.0
408 71 1.0
9 72 -1.0
79 72 1.0
87 72 -1.0
414 72 1.0
9 73 -1.0
91 73 1.0
99 73 -1.0
416 73 1.0
10 74 1.0
46 74 -1.0
48 74 1.0
52 74 -1.0
409 74 1.0
10 75 -1.0
83 75 1.0
88 75 -1.0
415 75 1.0
10 76 -1.0
95 76 1.0
100 76 -1.0
417 76 1.0
11 77 1.0
65 77 -1.0
67 77 1.0
69 77 -1.0
71 77 1.0
77 77 -1.0
412 77 1.0
11 78 -1.0
115 78 0.9
117 78 -0.9
119 78 -1.0
418 78 1.0
11 79 -1.0
123 79 0.6
125 79 -0.6
127 79 -1.0
420 79 1.0
11 80 -1.0
131 80 1.0
139 80 -1.0
422 80 1.0
12 81 1.0
66 81 -1.0
68 81 1.0
70 81 -1.0
72 81 1.0
78 81 -1.0
413 81 1.0
12 82 -1.0
116 82 0.9
118 82 -0.9
120 82 -1.0
419 82 1.0
12 83 -1.0
124 83 0.6
126 83 -0.6
128 83 -1.0
421 83 1.0
12 84 -1.0
135 84 1.0
140 84 -1.0
423 84 1.0
13 85 1.0
106 85 -1.0
113 85 -1.0
428 85 1.0
13 86 -1.0
169 86 1.0
177 86 -1.0
436 86 1.0
13 87 -1.0
181 87 1.0
197 87 -1.0
438 87 1.0
14 88 1.0
110 88 -1.0
114 88 -1.0
429 88 1.0
14 89 -1.0
173 89 1.0
178 89 -1.0
437 89 1.0
14 90 -1.0
185 90 1.0
198 90 -1.0
439 90 1.0
15 91 -1.0
115 91 -1.0
117 91 1.0
121 91 -1.0
430 91 1.0
15 92 1.0
189 92 1.0
199 92 -1.0
448 92 1.0
16 93 -1.0
116 93 -1.0
118 93 1.0
122 93 -1.0
431 93 1.0
16 94 1.0
193 94 1.0
200 94 -1.0
449 94 1.0
17 95 -1.0
450 95 1.0
17 96 -1.0
452 96 1.0
18 97 -1.0
451 97 1.0
18 98 -1.0
453 98 1.0
19 99 -1.0
454 99 1.0
19 100 -1.0
456 100 1.0
19 101 -1.0
458 101 1.0
20 102 -1.0
455 102 1.0
20 103 -1.0
457 103 1.0
20 104 -1.0
459 104 1.0
23 105 1.0
24 105 1.0
24 106 -1.0
29 106 40.0
31 106 3.71357206670431
263 106 -1.0
308 106 -1.0
309 106 1.0
338 106 1.0
354 106 1.0
356 106 1.0
358 106 1.0
468 106 1.0
469 106 -1.0
27 107 1.0
28 107 1.0
28 108 -1.0
30 108 40.0
32 108 3.71357206670431
263 108 1.0
309 108 -1.0
339 108 1.0
355 108 1.0
357 108 1.0
359 108 1.0
470 108 1.0
471 108 -1.0
35 109 1.0
36 109 1.2
36 110 -1.0
41 110 40.0
43 110 4.45628648004517
264 110 -1.0
310 110 -1.0
311 110 1.0
338 110 1.0
354 110 1.0
356 110 1.0
358 110 1.0
472 110 1.0
473 110 -1.0
39 111 1.0
40 111 1.2
40 112 -1.0
42 112 40.0
44 112 4.45628648004517
264 112 1.0
311 112 -1.0
339 112 1.0
355 112 1.0
357 112 1.0
359 112 1.0
474 112 1.0
475 112 -1.0
45 113 -1.0
47 113 -1.0
49 113 4.45628648004517
51 113 3.34221486003388
265 113 -1.0
312 113 -1.0
313 113 1.0
340 113 -1.0
354 113 -1.0
360 113 1.0
362 113 1.0
476 113 1.0
477 113 -1.0
46 114 -1.0
48 114 -1.0
50 114 4.45628648004517
52 114 3.34221486003388
265 114 1.0
313 114 -1.0
341 114 -1.0
355 114 -1.0
361 114 1.0
363 114 1.0
478 114 1.0
479 114 -1.0
55 115 1.0
56 115 1.5
56 116 -1.0
63 116 -1.0
103 116 1.0
111 116 -1.0
410 116 1.0
56 117 -1.0
61 117 4.45628648004517
63 117 2.54515263975353
266 117 -1.0
314 117 -1.0
315 117 1.0
346 117 -1.0
356 117 -1.0
364 117 1.0
480 117 1.0
481 117 -1.0
59 118 1.0
60 118 1.5
60 119 -1.0
64 119 -1.0
107 119 1.0
112 119 -1.0
411 119 1.0
60 120 -1.0
62 120 4.45628648004517
64 120 2.54515263975353
266 120 1.0
315 120 -1.0
347 120 -1.0
357 120 -1.0
365 120 1.0
482 120 1.0
483 120 -1.0
65 121 -1.0
67 121 -1.0
69 121 -1.0
71 121 -1.0
73 121 4.45628648004517
75 121 30.0
77 121 15.0
267 121 -1.0
316 121 -1.0
317 121 1.0
350 121 -1.0
358 121 -1.0
366 121 1.0
368 121 1.0
370 121 1.0
484 121 1.0
485 121 -1.0
66 122 -1.0
68 122 -1.0
70 122 -1.0
72 122 -1.0
74 122 4.45628648004517
76 122 30.0
78 122 15.0
267 122 1.0
317 122 -1.0
351 122 -1.0
359 122 -1.0
367 122 1.0
369 122 1.0
371 122 1.0
486 122 1.0
487 122 -1.0
81 123 1.0
82 123 1.25
82 124 -1.0
89 124 -1.0
143 124 0.9
145 124 -0.9
151 124 -1.0
424 124 1.0
82 125 -1.0
87 125 3.34221486003388
89 125 1.83548069293539
268 125 -1.0
318 125 -1.0
319 125 1.0
340 125 1.0
342 125 -1.0
360 125 -1.0
372 125 1.0
488 125 1.0
489 125 -1.0
85 126 1.0
86 126 1.25
86 127 -1.0
90 127 -1.0
144 127 0.9
146 127 -0.9
152 127 -1.0
425 127 1.0
86 128 -1.0
88 128 3.34221486003388
90 128 1.83548069293539
268 128 1.0
319 128 -1.0
341 128 1.0
343 128 -1.0
361 128 -1.0
373 128 1.0
490 128 1.0
491 128 -1.0
93 129 1.0
94 129 0.9
94 130 -1.0
101 130 -1.0
157 130 1.0
165 130 -1.0
426 130 1.0
94 131 -1.0
99 131 3.34221486003388
101 131 1.32154609891348
269 131 -1.0
320 131 -1.0
321 131 1.0
340 131 1.0
344 131 -1.0
362 131 -1.0
374 131 1.0
492 131 1.0
493 131 -1.0
97 132 1.0
98 132 0.9
98 133 -1.0
102 133 -1.0
161 133 1.0
166 133 -1.0
427 133 1.0
98 134 -1.0
100 134 3.34221486003388
102 134 1.32154609891348
269 134 1.0
321 134 -1.0
341 134 1.0
345 134 -1.0
363 134 -1.0
375 134 1.0
494 134 1.0
495 134 -1.0
105 135 1.0
106 135 1.0
106 136 -1.0
111 136 2.54515263975353
113 136 1.26558121681553
270 136 -1.0
322 136 -1.0
323 136 1.0
346 136 1.0
348 136 -1.0
364 136 -1.0
376 136 1.0
378 136 1.0
496 136 1.0
497 136 -1.0
109 137 1.0
110 137 1.0
110 138 -1.0
112 138 2.54515263975353
114 138 1.26558121681553
270 138 1.0
323 138 -1.0
347 138 1.0
349 138 -1.0
365 138 -1.0
377 138 1.0
379 138 1.0
498 138 1.0
499 138 -1.0
115 139 -1.0
117 139 -1.0
119 139 15.0
121 139 13.5
271 139 -1.0
324 139 -1.0
325 139 1.0
350 139 1.0
352 139 -1.0
366 139 -1.0
500 139 1.0
501 139 -1.0
116 140 -1.0
118 140 -1.0
120 140 15.0
122 140 13.5
271 140 1.0
325 140 -1.0
351 140 1.0
353 140 -1.0
367 140 -1.0
502 140 1.0
503 140 -1.0
123 141 -1.0
125 141 -1.0
127 141 15.0
129 141 9.0
272 141 -1.0
326 141 -1.0
327 141 1.0
350 141 1.0
368 141 -1.0
504 141 1.0
505 141 -1.0
124 142 -1.0
126 142 -1.0
128 142 15.0
130 142 9.0
272 142 1.0
327 142 -1.0
351 142 1.0
369 142 -1.0
506 142 1.0
507 142 -1.0
133 143 1.0
134 143 1.1
134 144 -1.0
139 144 15.0
141 144 3.04984759446376
273 144 -1.0
328 144 -1.0
329 144 1.0
350 144 1.0
370 144 -1.0
508 144 1.0
509 144 -1.0
137 145 1.0
138 145 1.1
138 146 -1.0
140 146 15.0
142 146 3.04984759446376
273 146 1.0
329 146 -1.0
351 146 1.0
371 146 -1.0
510 146 1.0
511 146 -1.0
143 147 -1.0
145 147 -1.0
147 147 -1.0
149 147 -1.0
151 147 1.83548069293539
153 147 20.0
155 147 20.0
274 147 -1.0
330 147 -1.0
331 147 1.0
342 147 1.0
372 147 -1.0
512 147 1.0
513 147 -1.0
144 148 -1.0
146 148 -1.0
148 148 -1.0
150 148 -1.0
152 148 1.83548069293539
154 148 20.0
156 148 20.0
274 148 1.0
331 148 -1.0
343 148 1.0
373 148 -1.0
514 148 1.0
515 148 -1.0
159 149 1.0
160 149 1.0
160 150 -1.0
165 150 1.32154609891348
167 150 0.842233385663186
275 150 -1.0
332 150 -1.0
333 150 1.0
344 150 1.0
374 150 -1.0
516 150 1.0
517 150 -1.0
163 151 1.0
164 151 1.0
164 152 -1.0
166 152 1.32154609891348
168 152 0.842233385663186
275 152 1.0
333 152 -1.0
345 152 1.0
375 152 -1.0
518 152 1.0
519 152 -1.0
171 153 1.0
172 153 0.7
172 154 -1.0
177 154 1.26558121681553
179 154 0.572481933717686
276 154 -1.0
334 154 -1.0
335 154 1.0
348 154 1.0
376 154 -1.0
520 154 1.0
521 154 -1.0
175 155 1.0
176 155 0.7
176 156 -1.0
178 156 1.26558121681553
180 156 0.572481933717686
276 156 1.0
335 156 -1.0
349 156 1.0
377 156 -1.0
522 156 1.0
523 156 -1.0
183 157 1.0
184 157 0.65
184 158 -1.0
192 158 -1.0
197 158 1.26558121681553
199 158 33.5
201 158 2.30162356062425
277 158 -1.0
336 158 -1.0
337 158 1.0
348 158 1.0
352 158 1.0
378 158 -1.0
524 158 1.0
525 158 -1.0
187 159 1.0
188 159 0.65
188 160 -1.0
196 160 -1.0
198 160 1.26558121681553
200 160 33.5
202 160 2.30162356062425
277 160 1.0
337 160 -1.0
349 160 1.0
353 160 1.0
379 160 -1.0
526 160 1.0
527 160 -1.0
191 161 1.0
192 161 0.65
195 162 1.0
196 162 0.65
203 163 -1.0
233 163 1.0
204 164 -1.0
234 164 1.0
205 165 -1.0
235 165 1.0
206 166 -1.0
236 166 1.0
207 167 -1.0
237 167 1.0
208 168 -1.0
238 168 1.0
209 169 -1.0
239 169 1.0
210 170 -1.0
240 170 1.0
211 171 -1.0
241 171 1.0
212 172 -1.0
242 172 1.0
213 173 -1.0
243 173 1.0
214 174 -1.0
244 174 1.0
215 175 -1.0
245 175 1.0
216 176 -1.0
246 176 1.0
217 177 -1.0
247 177 1.0
218 178 -1.0
248 178 1.0
219 179 -1.0
249 179 1.0
220 180 -1.0
250 180 1.0
221 181 -1.0
251 181 1.0
222 182 -1.0
252 182 1.0
223 183 -1.0
253 183 1.0
224 184 -1.0
254 184 1.0
225 185 -1.0
255 185 1.0
226 186 -1.0
256 186 1.0
227 187 -1.0
257 187 1.0
228 188 -1.0
258 188 1.0
229 189 -1.0
259 189 1.0
230 190 -1.0
260 190 1.0
231 191 -1.0
261 191 1.0
232 192 -1.0
262 192 1.0

BCOORD
194
21 1.0
22 1.0
24 1.0
25 1.0
26 1.0
28 1.0
33 1.0
34 1.0
36 1.0
37 1.0
38 1.0
40 1.0
45 1.0
46 1.0
47 1.0
48 1.0
53 1.0
54 1.0
56 1.0
57 1.0
58 1.0
60 1.0
65 1.0
66 1.0
67 1.0
68 1.0
69 1.0
70 1.0
71 1.0
72 1.0
79 1.0
80 1.0
82 1.0
83 1.0
84 1.0
86 1.0
91 1.0
92 1.0
94 1.0
95 1.0
96 1.0
98 1.0
103 1.0
104 1.0
106 1.0
107 1.0
108 1.0
110 1.0
115 1.0
116 1.0
117 1.0
118 1.0
123 1.0
124 1.0
125 1.0
126 1.0
131 1.0
132 1.0
134 1.0
135 1.0
136 1.0
138 1.0
143 1.0
144 1.0
145 1.0
146 1.0
147 1.0
148 1.0
149 1.0
150 1.0
157 1.0
158 1.0
160 1.0
161 1.0
162 1.0
164 1.0
169 1.0
170 1.0
172 1.0
173 1.0
174 1.0
176 1.0
181 1.0
182 1.0
184 1.0
185 1.0
186 1.0
188 1.0
189 1.0
190 1.0
192 1.0
193 1.0
194 1.0
196 1.0
278 1.0
279 1.0
280 1.0
281 1.0
282 1.0
283 1.0
284 1.0
285 1.0
286 1.0
287 1.0
288 1.0
289 1.0
290 1.0
291 1.0
292 1.0
293 1.0
294 1.0
295 1.0
296 1.0
297 1.0
298 1.0
299 1.0
300 1.0
301 1.0
302 1.0
303 1.0
304 1.0
305 1.0
306 1.0
307 1.0
338 -1.0
339 -1.0
381 40.0
383 40.0
405 30.0
407 30.0
441 20.0
443 20.0
445 20.0
447 20.0
469 1.0
471 1.0
473 1.0
475 1.0
477 1.0
479 1.0
481 1.0
483 1.0
485 1.0
487 1.0
489 1.0
491 1.0
493 1.0
495 1.0
497 1.0
499 1.0
501 1.0
503 1.0
505 1.0
507 1.0
509 1.0
511 1.0
513 1.0
515 1.0
517 1.0
519 1.0
521 1.0
523 1.0
525 1.0
527 1.0
529 1.0
531 1.0
533 1.0
535 1.0
537 1.0
539 1.0
541 1.0
543 1.0
545 1.0
547 1.0
549 1.0
551 1.0
553 1.0
555 1.0
557 1.0
559 1.0
561 1.0
563 1.0
565 1.0
567 1.0
569 1.0
571 1.0
573 1.0
575 1.0
577 1.0
579 1.0
581 1.0
583 1.0
585 1.0
587 1.0
